p tdp 59 114
48 51
10 30
30 50
19 52
19 37
28 54
27 40
26 42
24 55
4 28
20 45
27 58
9 32
18 25
1 33
50 55
19 35
2 5
33 37
47 53
23 39
21 57
11 29
21 46
9 58
15 42
16 22
14 47
31 47
12 34
32 59
26 44
43 48
13 18
3 34
4 17
29 49
7 30
31 55
36 41
55 58
4 39
22 44
4 14
29 38
3 41
41 56
20 50
22 43
2 11
19 21
2 44
3 6
13 35
8 48
26 57
6 43
10 52
7 43
10 29
36 57
29 58
10 37
7 55
22 35
24 28
45 52
20 21
7 58
35 48
1 46
5 50
32 50
5 56
25 30
12 41
48 54
18 58
12 30
7 38
16 44
2 29
8 59
35 39
19 25
19 24
42 52
13 33
27 37
16 43
42 56
43 54
2 30
14 46
28 46
16 34
32 43
4 44
25 43
32 33
32 46
43 51
41 49
8 10
32 58
4 57
37 47
20 29
22 29
24 56
14 33
4 46
47 48
10 42
